Reading model...
...model read.
creating competitive generators file...
...competitive generators recorded.
Loading data...
.. real-time data read.
Compiling instance...
0.0
0.0
0.0
0.0
...instance created.
Creating Offer Mitigation (model will solve as dispatch if TRUE)...
...storage offer mitigation file created
Converting model to MPEC...
...converted
NOTE: initial MIP solve with only storage competitive to get feasible solution
Solving...

Welcome to IBM(R) ILOG(R) CPLEX(R) Interactive Optimizer 12.9.0.0
  with Simplex, Mixed Integer & Barrier Optimizers
5725-A06 5725-A29 5724-Y48 5724-Y49 5724-Y54 5724-Y55 5655-Y21
Copyright IBM Corp. 1988, 2019.  All Rights Reserved.

Type 'help' for a list of available commands.
Type 'help' followed by a command name for more
information on commands.

CPLEX> Logfile 'cplex.log' closed.
Logfile 'C:\Users\llavin\Desktop\test826\logs\tmprhl565ta.cplex.log' open.
CPLEX> New value for parallel optimization mode: -1
CPLEX> New value for mixed integer optimality gap tolerance: 0.05
CPLEX> New value for emphasis for MIP optimization: 1
CPLEX> New value for integrality tolerance: 1e-12
CPLEX> New value for deterministic time limit in ticks: 100000
CPLEX> Problem 'C:\Users\llavin\Desktop\test826\logs\tmpv5n2jx3q.pyomo.lp' read.
Read time = 0.52 sec. (28.54 ticks)
CPLEX> Problem name         : C:\Users\llavin\Desktop\test826\logs\tmpv5n2jx3q.pyomo.lp
Objective sense      : Maximize
Variables            :  107783  [Nneg: 1,  Box: 44058,  Free: 8928,
                                 Binary: 54796]
Objective nonzeros   :   19009
Linear constraints   :  246901  [Less: 82864,  Greater: 118424,  Equal: 45613]
  Nonzeros           :  619805
  RHS nonzeros       :  136512

Variables            : Min LB: -5000.000        Max UB: 1000000.       
Objective nonzeros   : Min   : 0.02500000       Max   : 208.3333       
Linear constraints   :
  Nonzeros           : Min   : 0.02500000       Max   : 1000000.       
  RHS nonzeros       : Min   : 0.02500000       Max   : 1000000.       
CPLEX> CPXPARAM_Parallel                                -1
CPXPARAM_Emphasis_MIP                            1
CPXPARAM_DetTimeLimit                            100000
CPXPARAM_MIP_Tolerances_MIPGap                   0.050000000000000003
CPXPARAM_MIP_Tolerances_Integrality              9.9999999999999998e-13
Tried aggregator 3 times.
MIP Presolve eliminated 173739 rows and 34727 columns.
MIP Presolve added 7723 rows and 0 columns.
MIP Presolve modified 52954 coefficients.
Aggregator did 26019 substitutions.
Reduced MIP has 54866 rows, 46653 columns, and 157325 nonzeros.
Reduced MIP has 18467 binaries, 0 generals, 0 SOSs, and 0 indicators.
Presolve time = 0.61 sec. (351.16 ticks)
Probing fixed 842 vars, tightened 17095 bounds.
Probing time = 0.42 sec. (18.84 ticks)
Tried aggregator 2 times.
MIP Presolve eliminated 1878 rows and 1691 columns.
MIP Presolve modified 7154 coefficients.
Aggregator did 98 substitutions.
Reduced MIP has 52890 rows, 44864 columns, and 151569 nonzeros.
Reduced MIP has 17623 binaries, 0 generals, 0 SOSs, and 0 indicators.
Presolve time = 0.30 sec. (264.34 ticks)
Probing fixed 0 vars, tightened 336 bounds.
Probing time = 0.58 sec. (19.52 ticks)
Clique table members: 87259.
MIP emphasis: integer feasibility.
MIP search method: dynamic search.
Parallel mode: opportunistic, using up to 32 threads.
Root relaxation solution time = 1.63 sec. (2803.69 ticks)

        Nodes                                         Cuts/
   Node  Left     Objective  IInf  Best Integer    Best Bound    ItCnt     Gap

      0     0        0.0000   413                      0.0000    11975         
*     0+    0                            0.0000        0.0000             0.00%
      0     0        cutoff              0.0000        0.0000    11975    0.00%
Elapsed time = 5.67 sec. (5323.71 ticks, tree = 0.01 MB, solutions = 1)

Root node processing (before b&c):
  Real time             =    5.70 sec. (5327.71 ticks)
Parallel b&c, 32 threads:
  Real time             =    0.00 sec. (0.00 ticks)
  Sync time (average)   =    0.00 sec.
  Wait time (average)   =    0.00 sec.
                          ------------
Total (root+branch&cut) =    5.70 sec. (5327.71 ticks)

Solution pool: 1 solution saved.

MIP - Integer optimal solution:  Objective =  4.9495838539e-09
Solution time =    5.72 sec.  Iterations = 11975  Nodes = 0
Deterministic time = 5328.02 ticks  (931.63 ticks/sec)

CPLEX> Incumbent solution written to file 'C:\Users\llavin\Desktop\test826\logs\tmpo1agu_ib.cplex.sol'.
CPLEX> NOTE: no warmstart specified for MIP iteration, default behavior is true
NOTE: resolving with all competitive generators using storage-only solution to warmstart
Solving...

Welcome to IBM(R) ILOG(R) CPLEX(R) Interactive Optimizer 12.9.0.0
  with Simplex, Mixed Integer & Barrier Optimizers
5725-A06 5725-A29 5724-Y48 5724-Y49 5724-Y54 5724-Y55 5655-Y21
Copyright IBM Corp. 1988, 2019.  All Rights Reserved.

Type 'help' for a list of available commands.
Type 'help' followed by a command name for more
information on commands.

CPLEX> Logfile 'cplex.log' closed.
Logfile 'C:\Users\llavin\Desktop\test826\logs\tmpi5jeoapz.cplex.log' open.
CPLEX> New value for parallel optimization mode: -1
CPLEX> New value for mixed integer optimality gap tolerance: 0.05
CPLEX> New value for emphasis for MIP optimization: 1
CPLEX> New value for integrality tolerance: 1e-12
CPLEX> New value for deterministic time limit in ticks: 100000
CPLEX> Problem 'C:\Users\llavin\Desktop\test826\logs\tmpa1jkv9rv.pyomo.lp' read.
Read time = 0.59 sec. (28.59 ticks)
CPLEX> MIP start file 'C:\Users\llavin\Desktop\test826\logs\tmp6lejppkv.cplex.mst' read.
CPLEX> Problem name         : C:\Users\llavin\Desktop\test826\logs\tmpa1jkv9rv.pyomo.lp
Objective sense      : Maximize
Variables            :  109223  [Nneg: 1,  Box: 45498,  Free: 8928,
                                 Binary: 54796]
Objective nonzeros   :   20401
Linear constraints   :  246901  [Less: 82864,  Greater: 118424,  Equal: 45613]
  Nonzeros           :  619805
  RHS nonzeros       :  136512

Variables            : Min LB: -5000.000        Max UB: 1000000.       
Objective nonzeros   : Min   : 0.02500000       Max   : 208.3333       
Linear constraints   :
  Nonzeros           : Min   : 0.02500000       Max   : 1000000.       
  RHS nonzeros       : Min   : 0.02500000       Max   : 1000000.       
CPLEX> CPXPARAM_Parallel                                -1
CPXPARAM_Emphasis_MIP                            1
CPXPARAM_DetTimeLimit                            100000
CPXPARAM_MIP_Tolerances_MIPGap                   0.050000000000000003
CPXPARAM_MIP_Tolerances_Integrality              9.9999999999999998e-13
Warning:  No solution found from 1 MIP starts.
Retaining values of one MIP start for possible repair.
Tried aggregator 3 times.
MIP Presolve eliminated 173739 rows and 36167 columns.
MIP Presolve added 7723 rows and 0 columns.
MIP Presolve modified 52954 coefficients.
Aggregator did 26019 substitutions.
Reduced MIP has 54866 rows, 46653 columns, and 157325 nonzeros.
Reduced MIP has 18467 binaries, 0 generals, 0 SOSs, and 0 indicators.
Presolve time = 0.63 sec. (351.90 ticks)
Probing fixed 842 vars, tightened 17095 bounds.
Probing time = 0.45 sec. (18.84 ticks)
Tried aggregator 2 times.
MIP Presolve eliminated 1878 rows and 1691 columns.
MIP Presolve modified 7154 coefficients.
Aggregator did 98 substitutions.
Reduced MIP has 52890 rows, 44864 columns, and 151569 nonzeros.
Reduced MIP has 17623 binaries, 0 generals, 0 SOSs, and 0 indicators.
Presolve time = 0.31 sec. (264.36 ticks)
Probing fixed 0 vars, tightened 336 bounds.
Probing time = 0.59 sec. (19.52 ticks)
Clique table members: 87259.
MIP emphasis: integer feasibility.
MIP search method: dynamic search.
Parallel mode: opportunistic, using up to 32 threads.
Root relaxation solution time = 1.59 sec. (2868.12 ticks)

        Nodes                                         Cuts/
   Node  Left     Objective  IInf  Best Integer    Best Bound    ItCnt     Gap

      0     0     4365.5361   489                   4365.5361    12518         
      0     0     4364.9670    61                   Cuts: 145    12611         
      0     0     4364.8582    66                    Cuts: 38    12630         
      0     0     4364.8018    67                     Cuts: 7    12638         
Repair heuristic found nothing.
      0    10     4309.8522    54                     Cuts: 4    12669         
Elapsed time = 11.55 sec. (5862.14 ticks, tree = 0.02 MB, solutions = 0)
    267    77     4300.6233    57                   4359.1041    12900         
    549   125     4255.4430    48                   4359.1041    13184         
    816   388     3920.1489    54                   4359.1041    14924         
   1056   745     2399.4825    56                   4359.1041    21107         
   1298   847     4273.1143    57                   4359.1041    23696         
   1512  1226     3105.8167    50                   4359.1041    34071         
   1740  1100     3615.5373    46                   4359.1041    31341         
   2010  1640     4178.3539    50                   4359.1041    41528         
   2288  1656     1816.2455    48                   4359.1041    41915         
   3357  2703     1068.3117    59                   4359.1041    62069         
Elapsed time = 31.83 sec. (8969.97 ticks, tree = 36.04 MB, solutions = 0)
   4312  3532     4215.8368    58                   4359.1041    87032         
   5224  4778     4231.5337    42                   4359.1041   121322         
   5879  4883     3058.3168    54                   4359.1041   124376         
   5906  5873     4341.6924    28                   4359.1041   164266         
   6794   543     4278.2215    16                   4318.8493   171320         
   7879   959     2069.7166    43                   4318.8493   180961         
   8966  2235     4280.0423    15                   4318.8493   215432         
  10065  3324     4213.1759    18                   4318.8493   241604         
  11179  3768     4013.9034    10                   4318.8493   250274         
  12351  5414     2476.2512    12                   4318.8493   292622         
Elapsed time = 99.78 sec. (25269.64 ticks, tree = 439.01 MB, solutions = 0)
  13618  5515     3783.8788    20                   4318.8493   295446         
  14727  7208     3989.0991    20                   4318.8493   334647         
  15762  7550     1608.7978    14                   4318.8493   340697         
  16744  8228     3115.5953    21                   4318.8493   351394         
  17742  8812     3859.2497     5                   4318.8493   360925         
  18725  9654     3911.7110     4                   4318.8493   379769         
* 19281  9861      integral     0     3897.9475     4318.8493   381821   10.80%
  19736 10857     3953.1372    12     3897.9475     4318.8493   398068   10.80%
  20578 10890     3953.1372    11     3911.7110     4318.8493   398365   10.41%
  22058  3026     4077.0851     7     3990.7073     4318.8493   429581    8.22%
  23904  3746     4234.8063    19     3990.7073     4318.8493   428422    8.22%
Elapsed time = 163.36 sec. (34813.23 ticks, tree = 113.78 MB, solutions = 8)
  25692  3800     4085.5902     8     3990.7073     4318.8493   432507    8.22%
  27902  5404     4177.6666    11     3990.7073     4318.8493   439121    8.22%
  30109  7946     4005.8130     5     4019.9173     4318.8493   447963    7.44%
  31977  9349     4128.8489     8     4033.6809     4318.8493   452755    7.07%
  33803  9254     4239.8219    16     4033.6809     4318.8493   462027    7.07%
* 34845+ 9600                         4033.6809     4318.8493             7.07%
  35759  9222     4152.6189     9     4033.6809     4318.8493   461855    7.07%
  37781  9885     4041.0575     6     4033.6809     4318.8493   465313    7.07%
  39729 11202     4191.1334    10     4033.6809     4318.8493   470349    7.07%
  41844 14614     4122.1645    16     4033.6809     4318.8493   482460    7.07%
  43937 14006     4233.8081    13     4033.6809     4318.8493   480291    7.07%
Elapsed time = 271.83 sec. (44353.41 ticks, tree = 311.34 MB, solutions = 10)
  45748 16099     4077.0769     9     4033.6809     4318.8493   487052    7.07%
  47486 20615     4133.2189    14     4033.6809     4318.8493   503949    7.07%
  49310 20534     4142.0869    12     4033.6809     4318.8493   503481    7.07%
  51322 20896     4155.6559    11     4033.6809     4318.8493   504891    7.07%
  53420 24638        cutoff           4033.6809     4318.8493   520021    7.07%
  55439 23748     4122.8115    13     4033.6809     4318.8493   516854    7.07%
  57532 28719     4210.6917    14     4033.6809     4318.8493   536995    7.07%
  59668 27825     4173.8721    10     4033.6809     4318.8493   533209    7.07%
  61642 28821     4176.9469     8     4033.6809     4318.8493   537440    7.07%
  63491 31326     4033.9210     9     4033.6809     4318.8493   547679    7.07%
Elapsed time = 362.47 sec. (53893.71 ticks, tree = 626.99 MB, solutions = 10)
  65384 34200     4120.2895     7     4033.6809     4318.8493   559826    7.07%
  67116 33704        cutoff           4033.6809     4318.8493   558102    7.07%
  68860 35743     4089.5310    10     4033.6809     4318.8493   566256    7.07%
  70590 36852     4061.2863     9     4033.6809     4318.8493   570911    7.07%
  72440 39448     4115.5597    13     4033.6809     4318.8493   580478    7.07%
  74457 40306     4035.2696    11     4033.6809     4318.8493   584033    7.07%
  76243 42997     4086.4656    14     4033.6809     4318.8493   593887    7.07%
  77462 41998     4077.4551    13     4033.6809     4318.8493   590225    7.07%
  78090 44993     4098.1518    10     4033.6809     4318.8493   601283    7.07%
  78380 45061     4065.5464     9     4033.6809     4318.8493   601497    7.07%
Elapsed time = 362.58 sec. (63442.49 ticks, tree = 885.18 MB, solutions = 10)
  78464 48393        cutoff           4033.6809     4235.2601   613370    5.00%

Cover cuts applied:  17
Flow cuts applied:  34
Gomory fractional cuts applied:  8

Root node processing (before b&c):
  Real time             =    7.33 sec. (5791.51 ticks)
Parallel b&c, 32 threads:
  Real time             =  356.41 sec. (68401.57 ticks)
  Sync time (average)   =   47.14 sec.
  Wait time (average)   =    0.41 sec.
                          ------------
Total (root+branch&cut) =  363.73 sec. (74193.09 ticks)

Solution pool: 10 solutions saved.

MIP - Integer optimal, tolerance (0.05/1e-06):  Objective =  4.0336808641e+03
Current MIP best bound =  4.2352600505e+03 (gap = 201.579, 5.00%)
Solution time =  363.75 sec.  Iterations = 613370  Nodes = 78465 (48393)
Deterministic time = 74193.40 ticks  (203.97 ticks/sec)

CPLEX> Incumbent solution written to file 'C:\Users\llavin\Desktop\test826\logs\tmpk7ika6_j.cplex.sol'.
CPLEX> Exporting results... 
